# 7032
param n := 30;
param s := 1;
set E :=  (0,22) (1,3) (2,24) (2,28) (3,20) (3,29) (4,16) (4,23) (5,8) (5,22) (6,7) (6,21) (7,12) (8,25) (9,11) (9,12) (9,27) (9,28) (10,15) (11,16) (13,20) (14,19) (15,19) (15,24) (16,17) (18,29) (20,25) (20,26) (20,28);
